NAME : gr96.tsp
COMMENT : Optimal tour for gr96.tsp
TYPE : TOUR
DIMENSION : 96
Total Length: 559.1114572129736
TOUR_SECTION
1
30
31
32
36
37
38
39
51
79
80
91
83
81
82
84
85
86
87
90
89
88
78
77
76
75
74
73
72
71
61
62
63
64
66
67
68
94
93
92
95
96
65
28
26
22
21
19
18
20
17
16
15
14
13
12
10
9
7
8
6
5
4
11
33
44
45
46
47
48
25
24
23
27
60
59
70
69
57
56
58
54
53
55
52
50
49
43
42
41
40
35
34
29
2
3
-1
EOF
